c Reduced graph for 2-FullIns_4_0 generated by Cyril Grelier
p edge 106 579
e 1 2
e 1 3
e 1 4
e 1 7
e 1 8
e 1 11
e 1 12
e 1 15
e 1 16
e 1 17
e 1 18
e 1 25
e 1 26
e 1 27
e 1 28
e 1 29
e 1 30
e 1 41
e 1 42
e 1 43
e 1 44
e 1 49
e 1 50
e 1 51
e 1 52
e 1 53
e 1 54
e 1 55
e 1 56
e 1 69
e 1 70
e 1 75
e 1 76
e 1 79
e 1 80
e 1 105
e 1 106
e 2 19
e 2 20
e 2 31
e 2 32
e 2 39
e 2 40
e 2 57
e 2 58
e 2 61
e 2 62
e 2 71
e 2 72
e 2 73
e 2 74
e 2 77
e 2 78
e 2 83
e 2 84
e 2 87
e 2 88
e 2 91
e 2 92
e 2 93
e 2 94
e 2 95
e 2 96
e 2 97
e 2 98
e 2 99
e 2 100
e 2 101
e 2 102
e 2 103
e 2 104
e 2 105
e 2 106
e 3 6
e 3 9
e 3 10
e 3 20
e 3 21
e 3 22
e 3 23
e 3 24
e 3 31
e 3 32
e 3 45
e 3 46
e 3 47
e 3 48
e 3 57
e 3 58
e 3 61
e 3 62
e 3 81
e 3 82
e 3 83
e 3 84
e 3 87
e 3 88
e 3 99
e 3 100
e 4 5
e 4 19
e 4 33
e 4 34
e 4 59
e 4 60
e 4 63
e 4 64
e 4 71
e 4 72
e 4 81
e 4 82
e 4 85
e 4 86
e 4 89
e 4 90
e 4 91
e 4 92
e 4 93
e 4 94
e 4 99
e 4 100
e 4 101
e 4 102
e 4 103
e 4 104
e 5 6
e 5 7
e 5 8
e 5 9
e 5 10
e 5 15
e 5 16
e 5 17
e 5 18
e 5 21
e 5 22
e 5 23
e 5 24
e 5 41
e 5 42
e 5 43
e 5 44
e 5 45
e 5 46
e 5 47
e 5 48
e 5 69
e 5 70
e 5 81
e 5 82
e 6 25
e 6 26
e 6 33
e 6 34
e 6 49
e 6 50
e 6 51
e 6 52
e 6 59
e 6 60
e 6 63
e 6 64
e 6 69
e 6 70
e 6 75
e 6 76
e 6 79
e 6 80
e 6 81
e 6 82
e 6 85
e 6 86
e 6 89
e 6 90
e 7 14
e 7 19
e 7 34
e 7 35
e 7 36
e 7 37
e 7 38
e 7 40
e 7 59
e 7 60
e 7 63
e 7 64
e 7 72
e 7 73
e 7 74
e 7 77
e 7 78
e 7 91
e 7 92
e 7 93
e 7 94
e 8 13
e 8 19
e 8 33
e 8 35
e 8 36
e 8 39
e 8 59
e 8 60
e 8 65
e 8 66
e 8 71
e 8 73
e 8 74
e 8 85
e 8 86
e 8 91
e 8 92
e 8 95
e 8 96
e 8 101
e 8 102
e 9 12
e 9 14
e 9 26
e 9 27
e 9 28
e 9 29
e 9 30
e 9 34
e 9 35
e 9 36
e 9 37
e 9 38
e 9 49
e 9 50
e 9 51
e 9 52
e 9 59
e 9 60
e 9 63
e 9 64
e 10 11
e 10 13
e 10 25
e 10 27
e 10 28
e 10 33
e 10 35
e 10 36
e 10 49
e 10 50
e 10 53
e 10 54
e 10 59
e 10 60
e 10 65
e 10 66
e 10 75
e 10 76
e 10 85
e 10 86
e 11 14
e 11 21
e 11 22
e 11 23
e 11 24
e 11 32
e 11 35
e 11 36
e 11 37
e 11 38
e 11 40
e 11 57
e 11 58
e 11 61
e 11 62
e 11 73
e 11 74
e 11 77
e 11 78
e 12 13
e 12 21
e 12 22
e 12 31
e 12 35
e 12 36
e 12 39
e 12 45
e 12 46
e 12 57
e 12 58
e 12 65
e 12 66
e 12 73
e 12 74
e 12 83
e 12 84
e 12 95
e 12 96
e 13 14
e 13 15
e 13 16
e 13 17
e 13 18
e 13 21
e 13 22
e 13 23
e 13 24
e 13 27
e 13 28
e 13 29
e 13 30
e 13 35
e 13 36
e 13 37
e 13 38
e 14 15
e 14 16
e 14 21
e 14 22
e 14 27
e 14 28
e 14 35
e 14 36
e 14 41
e 14 42
e 14 45
e 14 46
e 14 53
e 14 54
e 14 65
e 14 66
e 15 19
e 15 33
e 15 34
e 15 36
e 15 39
e 15 40
e 15 60
e 15 71
e 15 72
e 15 74
e 15 92
e 16 19
e 16 33
e 16 34
e 16 35
e 16 39
e 16 40
e 16 59
e 16 71
e 16 72
e 16 73
e 16 91
e 17 19
e 17 33
e 17 39
e 17 66
e 17 68
e 17 71
e 17 86
e 17 90
e 17 96
e 17 98
e 17 102
e 17 104
e 18 19
e 18 33
e 18 39
e 18 65
e 18 67
e 18 71
e 18 85
e 18 89
e 18 95
e 18 97
e 18 101
e 18 103
e 19 41
e 19 42
e 19 43
e 19 44
e 19 69
e 19 70
e 20 25
e 20 26
e 20 49
e 20 50
e 20 51
e 20 52
e 20 69
e 20 70
e 20 75
e 20 76
e 20 79
e 20 80
e 21 25
e 21 26
e 21 28
e 21 33
e 21 34
e 21 36
e 21 50
e 21 60
e 22 25
e 22 26
e 22 27
e 22 33
e 22 34
e 22 35
e 22 49
e 22 59
e 23 25
e 23 33
e 23 54
e 23 56
e 23 66
e 23 68
e 23 76
e 23 80
e 23 86
e 23 90
e 24 25
e 24 33
e 24 53
e 24 55
e 24 65
e 24 67
e 24 75
e 24 79
e 24 85
e 24 89
e 25 32
e 25 57
e 25 58
e 25 61
e 25 62
e 26 31
e 26 45
e 26 46
e 26 57
e 26 58
e 26 83
e 26 84
e 27 31
e 27 32
e 27 36
e 27 39
e 27 40
e 27 58
e 27 74
e 28 31
e 28 32
e 28 35
e 28 39
e 28 40
e 28 57
e 28 73
e 29 31
e 29 39
e 29 46
e 29 48
e 29 66
e 29 68
e 29 84
e 29 88
e 29 96
e 29 98
e 30 31
e 30 39
e 30 45
e 30 47
e 30 65
e 30 67
e 30 83
e 30 87
e 30 95
e 30 97
e 31 49
e 31 50
e 31 51
e 31 52
e 32 49
e 32 50
e 32 53
e 32 54
e 32 75
e 32 76
e 34 41
e 34 42
e 34 45
e 34 46
e 35 36
e 37 42
e 37 44
e 37 46
e 37 48
e 37 54
e 37 56
e 37 66
e 37 68
e 38 41
e 38 43
e 38 45
e 38 47
e 38 53
e 38 55
e 38 65
e 38 67
e 40 41
e 40 42
e 40 53
e 40 54
e 41 64
e 41 72
e 41 78
e 41 94
e 42 63
e 42 72
e 42 77
e 42 93
e 43 64
e 43 68
e 43 78
e 43 90
e 43 94
e 43 98
e 43 104
e 44 63
e 44 67
e 44 77
e 44 89
e 44 93
e 44 97
e 44 103
e 45 52
e 45 64
e 46 51
e 46 63
e 47 52
e 47 56
e 47 64
e 47 68
e 47 80
e 47 90
e 48 51
e 48 55
e 48 63
e 48 67
e 48 79
e 48 89
e 49 58
e 50 57
e 51 84
e 51 88
e 52 83
e 52 87
e 53 62
e 53 78
e 54 61
e 54 77
e 55 62
e 55 68
e 55 78
e 55 88
e 55 98
e 56 61
e 56 67
e 56 77
e 56 87
e 56 97
e 61 76
e 61 80
e 62 75
e 62 79
e 67 68
e 69 82
e 69 100
e 70 81
e 70 99
e 79 88
e 80 87
e 81 82
e 105 106
